# ========================
# TONTO generated CIF file
# ========================

data_dwgn_080

_audit_creation_date               2017-2-18
_audit_creation_method             'Tonto 3.2.0 github v. 0d068f2'

# This is an incomplete CIF file, you must edit it
# in order for it to be acceptable

# ================
# Publication info
# ================

_publ_contact_author
;
    Dr. Tonto Magnifico
;
_publ_contact_author_email         'tonto.magnifico@gmail.com'
_publ_contact_author_fax           'use e-mail in century 21'
_publ_contact_author_phone         '+61 8 6488 3138'
_publ_requested_journal            'IUCrJ'
_publ_section_title
;
   Hirshfeld-atom-refinement (HAR) for dwgn_080
   See: SC. Capelli, H.-B. Burgi, B. Dittrich, S.Grabowsky
        and Dylan Jayatilaka, IUCrJ (2014). 1, 361â€“379
;

loop_
    _publ_author_name
    'Tonto Magnifico'

_publ_author_address
;
    Dr. Tonto Magnifico
    1 El Camino Ciberespacio
    Tierra Austral del Espiritu Santo
;

# ====================
# Chemical information
# ====================

_chemical_name_common              dwgn_080
_chemical_formula_sum              'C14 H8 O3'
_chemical_formula_moiety           'C14 H8 O3'
_chemical_formula_weight           224.2181
_chemical_compound_source          'see text'
_chemical_absolute_configuration   unk

# Tonto specific keys

_chemical_formula_spin_mult         1
_chemical_formula_n_electrons       116
_chemical_formula_n_alpha_electrons 58
_chemical_formula_n_beta_electrons  58

# ====================
# Symmetry information
# ====================

_symmetry_cell_setting             Monoclinic
_symmetry_space_group_name_H-M     'p 1 21/n 1'
_symmetry_space_group_name_Hall    '-p 2yn'
_symmetry_Int_Tables_number        '14'

loop_
    _symmetry_equiv_pos_as_xyz
'+x, +y, +z'
'-x, -y, -z'
'-x+1/2, +y+1/2, -z+1/2'
'+x+1/2, -y+1/2, +z+1/2'

# =====================
# Unit cell information
# =====================

_cell_length_a                      3.717(1)
_cell_length_b                      19.513(6)
_cell_length_c                      13.440(4)
_cell_angle_alpha                   90.000000(0)
_cell_angle_beta                    97.107(5)
_cell_angle_gamma                   90.000000(0)
_cell_volume                        967.4(5)

_diffrn_radiation_wavelength        0.710730
_cell_formula_units_Z               4.00000

_atom_sites_Cartn_tran_matrix_11    3.717300
_atom_sites_Cartn_tran_matrix_21    0.000000
_atom_sites_Cartn_tran_matrix_31    0.000000
_atom_sites_Cartn_tran_matrix_12    0.000000
_atom_sites_Cartn_tran_matrix_22    19.513000
_atom_sites_Cartn_tran_matrix_32    0.000000
_atom_sites_Cartn_tran_matrix_13    -1.662833
_atom_sites_Cartn_tran_matrix_23    0.000000
_atom_sites_Cartn_tran_matrix_33    13.336738
_atom_sites_Cartn_tran_vector_1     0.000000
_atom_sites_Cartn_tran_vector_2     0.000000
_atom_sites_Cartn_tran_vector_3     0.000000

# ==================
# Refinement details
# ==================

# Tonto-specific keys and data

_refine_ls_software                'Tonto'
_refine_ls_software_version        '3.2.0 v. 0d068f2'
_refine_ls_software_platform       'GNU-gfortran-on-LINUX'
_refine_ls_software_build_date     'Fr 17. Feb 10:57:07 CET 2017'
_refine_ls_kind                    'Hirshfeld atom refinement (HAR)'

_refine_ls_QM_calc_method          'Kohn-Sham/becke88lyp/SCCF L=1 R=8.0 A'
_refine_ls_QM_calc_ao_kind         'restricted'
_refine_ls_QM_calc_basis           'cc-pVTZ'
_refine_ls_QM_calc_basis_kind      'cartesian'
_refine_ls_QM_calc_basis_max_l     '3'
_refine_ls_QM_calc_unit            'As listed in _atom_site_* block'

_refine_ls_SVD_threshold           0.1E-04
_refine_ls_coordinate_system       cartesian

# Standard CIF keys and data

_refine_ls_structure_factor_coeff  F
_refine_ls_matrix_type             full
_refine_ls_R_factor_gt             0.0424
_refine_ls_R_factor_all            0.0424
_refine_ls_wR_factor_gt            0.0302
_refine_ls_wR_factor_all           0.0302
_refine_ls_R_Fsqd_factor           0.0573
_refine_ls_goodness_of_fit_gt      1.7147
_refine_ls_goodness_of_fit_all     1.7147
_refine_ls_number_reflns           1207
_refine_ls_number_parameters       186
_refine_ls_number_restraints       0
_refine_ls_number_constraints      40
_refine_ls_hydrogen_treatment      refall
_refine_ls_weighting_scheme        sigma
_refine_ls_weighting_details       'w=1/\s(F)'
_refine_ls_shift/su_conv_tol       0.0100
_refine_ls_shift/su_max            0.0006
_refine_ls_shift/su_max_mean       0.0001
_refine_ls_shift/su_max_par        'H5 Uzz'
_refine_ls_extinction_method       none

_refine_diff_density_max           0.0238
_refine_diff_density_min           -0.0251
_refine_diff_density_rms           0.0055
_refine_diff_density_max_atom      0.0078
_refine_diff_density_max_atom_tag  H8
_refine_diff_density_min_atom      -0.0165
_refine_diff_density_min_atom_tag  H9
_refine_diff_density_rms_atom      0.0052

_refine_special_details
;
. If constraints were applied they are defined by zero
  eigenvalues of the least-squares hessian, see the
  value of _refine_ls_SVD_threshold
;

# =====================
# Coordinates and ADP's
# =====================

loop_
_atom_site_label
_atom_site_fract_x
_atom_site_fract_y
_atom_site_fract_z
_atom_site_adp_type
_atom_site_occupancy
C1  0.5992(7) 0.2092(2) 0.9359(2) Uani 1.000000000
C2  0.7353(8) 0.2621(2) 0.8811(2) Uani 1.000000000
H2  0.833(9) 0.308(2) 0.904(2) Uani 1.000000000
C3  0.7270(8) 0.2414(2) 0.7799(2) Uani 1.000000000
H3  0.823(7) 0.274(1) 0.719(2) Uani 1.000000000
C3A 0.5849(7) 0.1753(1) 0.7717(2) Uani 1.000000000
C4  0.5184(8) 0.1312(1) 0.6831(2) Uani 1.000000000
O4  0.5864(5) 0.14864(9) 0.6002(1) Uani 1.000000000
C4A 0.3696(7) 0.0618(1) 0.7017(2) Uani 1.000000000
C5  0.3096(8) 0.0157(2) 0.6217(2) Uani 1.000000000
H5  0.399(7) 0.032(1) 0.544(2) Uani 1.000000000
C6  0.1855(8) -0.0501(2) 0.6374(2) Uani 1.000000000
H6  0.168(9) -0.083(2) 0.572(2) Uani 1.000000000
C7  0.1114(8) -0.0701(2) 0.7324(2) Uani 1.000000000
H7  0.022(8) -0.125(2) 0.746(2) Uani 1.000000000
C8  0.1642(8) -0.0241(2) 0.8125(2) Uani 1.000000000
H8  0.094(7) -0.042(1) 0.887(2) Uani 1.000000000
C8A 0.2923(7) 0.0416(1) 0.7978(2) Uani 1.000000000
C9  0.3546(7) 0.0891(1) 0.8825(2) Uani 1.000000000
O9  0.2684(5) 0.0686(1) 0.9679(1) Uani 1.000000000
C9A 0.5022(7) 0.1536(1) 0.8675(2) Uani 1.000000000
C10 0.5569(9) 0.2121(2) 1.0392(2) Uani 1.000000000
H10 0.610(9) 0.259(2) 1.080(3) Uani 1.000000000
O10 0.4252(5) 0.1655(1) 1.0866(1) Uani 1.000000000
H9  0.32(1) 0.112(2) 1.026(3) Uani 1.000000000

loop_
_atom_site_aniso_label
_atom_site_aniso_U_11
_atom_site_aniso_U_22
_atom_site_aniso_U_33
_atom_site_aniso_U_12
_atom_site_aniso_U_13
_atom_site_aniso_U_23
C1 0.026(2) 0.024(2) 0.022(2) 0.004(1) 0.001(2) 0.001(1)
C2 0.030(2) 0.022(2) 0.032(2) -0.001(2) 0.004(2) 0.001(2)
H2 0.07(1) 0.07(1) 0.07(1) 0.000000000(0) 0.008(2) 0.000000000(0)
C3 0.031(2) 0.020(2) 0.027(2) 0.001(1) 0.007(2) 0.001(2)
H3 0.024(8) 0.024(8) 0.024(8) 0.000000000(0) 0.003(1) 0.000000000(0)
C3A 0.027(2) 0.020(2) 0.020(2) 0.004(1) 0.005(1) 0.003(1)
C4 0.027(2) 0.027(2) 0.021(2) 0.006(1) 0.005(1) 0.006(1)
O4 0.047(1) 0.033(1) 0.020(1) 0.003(1) 0.012(1) 0.005(1)
C4A 0.023(2) 0.024(2) 0.024(2) 0.003(1) 0.002(1) 0.000(1)
C5 0.032(2) 0.027(2) 0.025(2) 0.002(2) -0.001(2) -0.005(2)
H5 0.019(7) 0.019(7) 0.019(7) 0.000000000(0) 0.0024(9) 0.000000000(0)
C6 0.036(2) 0.029(2) 0.030(2) 0.004(2) 0.000(2) -0.007(2)
H6 0.06(1) 0.06(1) 0.06(1) 0.000000000(0) 0.008(1) 0.000000000(0)
C7 0.034(2) 0.026(2) 0.036(2) -0.002(2) -0.004(2) -0.001(2)
H7 0.05(1) 0.05(1) 0.05(1) 0.000000000(0) 0.006(1) 0.000000000(0)
C8 0.029(2) 0.023(2) 0.027(2) -0.003(2) 0.001(2) 0.001(2)
H8 0.026(8) 0.026(8) 0.026(8) 0.000000000(0) 0.003(1) 0.000000000(0)
C8A 0.023(2) 0.022(2) 0.020(2) 0.000(1) 0.001(1) 0.001(1)
C9 0.023(2) 0.022(2) 0.021(2) 0.002(1) 0.002(1) 0.003(1)
O9 0.037(1) 0.026(1) 0.020(1) -0.001(1) 0.007(1) 0.005(1)
C9A 0.023(2) 0.023(2) 0.018(2) 0.002(1) 0.001(1) 0.003(1)
C10 0.037(2) 0.031(2) 0.021(2) 0.003(2) 0.003(2) 0.000(2)
H10 0.06(1) 0.06(1) 0.06(1) 0.000000000(0) 0.008(1) 0.000000000(0)
O10 0.047(1) 0.031(1) 0.022(1) -0.001(1) 0.006(1) 0.000(1)
H9 0.04(1) 0.04(1) 0.04(1) 0.000000000(0) 0.005(1) 0.000000000(0)

